@RELATION student_performance

@ATTRIBUTE study_hours_per_day NUMERIC
@ATTRIBUTE attendance_rate NUMERIC
@ATTRIBUTE assignment_avg NUMERIC
@ATTRIBUTE internet_hours_per_day NUMERIC
@ATTRIBUTE sleep_hours_per_day NUMERIC
@ATTRIBUTE exam_score NUMERIC

@DATA
4.75,92.91,70.49,3.62,6.87,70.63
3.79,75.91,78.62,4.84,6.04,51.88
4.97,99.03,86.06,2.87,5.39,77.0
6.28,70.98,90.39,3.48,7.2,79.16
3.65,90.87,65.6,3.83,6.24,61.09
3.65,100.0,75.99,2.52,5.58,74.27
6.37,75.09,74.3,3.27,6.35,66.52
5.15,79.34,72.16,3.02,5.92,58.88
3.3,86.0,100.0,3.12,8.69,56.59
4.81,79.97,84.86,2.07,7.88,76.33
3.3,69.49,64.87,3.03,6.99,55.58
3.3,85.69,91.01,3.6,8.48,62.6
4.36,74.38,100.0,4.74,7.08,65.5
1.13,89.74,92.39,4.15,6.14,45.35
1.41,75.81,61.77,5.58,8.52,54.51
3.16,100.0,74.19,2.08,7.54,64.8
2.48,77.17,95.2,4.05,5.96,55.06
4.47,81.78,71.51,3.22,6.81,66.4
2.64,93.14,85.33,5.63,6.12,58.75
1.88,72.69,89.3,2.03,5.62,52.25
6.2,87.27,68.88,1.99,7.93,70.95
3.66,98.07,79.29,2.28,8.91,70.33
4.1,68.93,41.1,0.45,5.6,62.75
1.86,86.85,67.71,2.37,7.56,58.84
3.18,87.6,76.97,2.09,6.35,68.13
4.17,92.82,65.03,3.18,6.51,60.52
2.27,72.63,99.59,3.41,6.41,49.16
4.56,71.8,62.84,5.25,6.14,54.9
3.1,90.22,74.72,4.14,7.05,58.45
3.56,87.97,81.57,2.31,6.17,68.15
3.1,87.5,97.3,1.92,7.27,56.25
6.78,88.46,62.77,3.59,6.95,81.88
3.98,78.2,93.96,1.42,6.76,65.07
2.41,87.32,80.12,5.2,6.09,50.79
5.23,87.93,68.22,4.42,6.42,60.97
2.17,77.86,85.55,2.44,7.76,46.32
4.31,100.0,82.39,0.94,7.5,77.03
1.06,89.74,72.8,4.62,6.02,46.42
2.01,73.09,80.84,2.86,7.1,43.93
4.3,91.57,75.38,4.49,7.75,58.36
5.11,75.25,81.36,1.09,5.33,65.67
4.26,92.87,87.95,2.28,7.54,78.38
3.83,96.59,99.03,3.01,6.34,68.08
3.55,76.79,65.15,3.06,7.57,48.68
1.78,94.63,100.0,2.46,6.24,58.11
2.92,89.13,56.57,3.75,5.2,50.95
3.31,93.22,78.18,1.72,5.37,48.9
5.59,100.0,87.06,2.83,7.05,77.31
4.52,82.55,83.37,3.14,7.26,64.9
1.36,77.46,72.53,3.62,6.1,48.54
4.49,76.1,77.5,3.85,7.64,71.49
3.42,76.84,74.08,1.65,5.34,62.9
2.98,84.23,72.93,1.16,6.93,57.59
4.92,88.41,90.2,4.53,5.79,62.81
5.55,87.77,84.28,3.4,6.35,84.79
5.4,93.27,71.69,2.1,7.05,72.71
2.74,85.13,90.8,4.86,6.14,56.55
3.54,99.54,83.69,3.14,6.62,65.68
4.5,82.35,89.75,4.42,8.01,67.24
5.46,100.0,87.56,3.08,6.42,75.55
3.28,91.26,70.05,5.47,7.84,54.63
3.72,76.43,73.28,5.11,5.87,52.03
2.34,74.29,88.97,2.7,7.53,54.4
2.21,89.82,87.32,4.17,8.44,54.48
5.22,82.77,79.75,3.77,4.53,62.4
6.03,92.14,81.41,4.64,6.2,74.02
3.89,89.73,95.33,1.84,7.58,68.02
5.51,84.27,72.9,3.82,6.8,75.76
4.54,76.53,86.57,4.27,7.37,50.5
3.03,69.85,77.57,0.89,6.4,61.14
4.54,80.53,77.39,1.58,7.09,72.35
6.31,93.56,93.19,0.55,6.84,72.69
3.95,87.14,89.9,2.68,8.17,65.46
6.35,72.54,89.76,3.86,7.25,70.76
0.07,86.73,95.67,4.8,7.34,40.0
5.23,88.85,80.25,3.09,6.59,66.55
4.13,76.16,88.18,4.95,6.51,54.85
3.55,86.54,76.28,1.34,6.57,71.38
4.14,85.58,83.89,0.96,7.39,72.59
1.02,73.57,78.44,2.93,6.58,50.95
3.67,88.58,81.16,3.46,7.29,66.45
4.54,90.61,87.14,2.96,9.08,65.35
6.22,95.83,70.18,0.52,7.87,76.92
3.22,95.54,100.0,2.89,6.67,69.09
2.79,71.22,67.93,1.43,8.2,47.62
3.25,75.62,65.43,3.8,6.59,56.28
5.37,90.15,93.9,3.44,4.96,71.33
4.49,90.14,89.5,1.87,5.99,68.08
3.21,90.15,87.49,2.38,5.13,65.37
4.77,100.0,87.54,1.73,6.65,76.82
4.15,90.71,79.85,2.92,7.02,64.21
5.45,96.36,69.23,4.15,8.68,77.78
2.95,94.54,80.91,1.82,7.33,57.55
3.51,91.51,71.87,3.6,6.78,63.55
3.41,81.85,91.7,2.36,7.83,66.35
1.8,92.59,78.24,2.05,4.79,52.27
4.44,77.27,70.09,2.87,7.24,63.39
4.39,82.63,76.14,1.76,7.77,59.83
4.01,80.15,84.96,2.34,5.52,67.31
3.65,85.82,73.24,1.56,8.14,62.35
1.88,100.0,70.13,5.36,7.34,50.24
3.37,66.33,82.92,3.04,6.58,60.19
3.49,91.86,82.94,2.16,7.63,61.57
2.8,68.87,73.92,3.26,9.27,45.89
3.76,80.28,74.35,2.87,7.18,52.27
4.61,95.89,82.78,2.73,7.25,73.9
6.83,85.64,62.62,3.74,6.54,66.71
4.26,74.22,63.11,3.91,6.15,65.2
4.39,77.85,71.38,2.36,7.83,52.58
3.89,91.8,77.44,2.31,6.14,73.09
1.12,77.7,83.73,2.67,7.07,49.17
3.96,87.16,97.7,0.24,6.52,69.94
4.09,85.46,90.29,1.18,7.48,65.99
7.69,78.48,78.08,4.64,7.33,79.93
3.71,100.0,79.77,4.97,8.04,64.78
4.45,91.34,67.97,2.7,6.49,70.72
3.95,64.75,79.78,3.69,6.73,56.64
2.25,86.86,76.54,3.37,6.02,54.12
5.71,78.38,83.87,6.69,6.56,64.25
5.13,93.52,70.07,4.34,7.38,68.12
